Optimal - objective value 123.00000000
      0 C           122.999999999995                       0
      1 x_0_0       4.00000000000469                       0
      2 x_0_1                    22                       0
      3 x_0_2                    37                       0
      4 x_0_3                    58                       0
      5 x_0_4                    73                       0
      6 x_0_5       89.9999999999952                       0
      7 x_0_6       104.999999999995                       0
      8 x_1_0                    34                       0
      9 x_1_1       55.9999999999906                       0
     10 x_1_2                    73                       0
     11 x_1_3                    77                       0
     12 x_1_4                    80                       0
     13 x_1_5       85.9999999999952                       0
     14 x_1_6       102.999999999995                       0
     16 x_2_1                    17                       0
     17 x_2_2                    37                       0
     18 x_2_3                    53                       0
     19 x_2_4       82.9999999999949                       0
     20 x_2_5       101.999999999995                       0
     21 x_2_6                   103                       0
     22 x_3_0       36.9999999999906                       0
     23 x_3_1       55.9999999999952                       0
     24 x_3_2       61.9999999999952                       0
     25 x_3_3       66.9999999999952                       0
     26 x_3_4                    84                       0
     27 x_3_5                   103                       0
     28 x_3_6       119.999999999995                       0
     30 x_4_1                    15                       0
     31 x_4_2                    18                       0
     32 x_4_3                    38                       0
     33 x_4_4       66.9999999999952                       0
     34 x_4_5       91.9999999999906                       0
     35 x_4_6       120.999999999995                       0
     37 x_5_1       1.99999999999999                       0
     38 x_5_2                    17                       0
     39 x_5_3                    70                       0
     40 x_5_4       73.9999999999906                       0
     41 x_5_5       76.9999999999906                       0
     42 x_5_6       106.999999999995                       0
     44 x_6_1                    17                       0
     45 x_6_2                    34                       0
     46 x_6_3                    37                       0
     47 x_6_4                    52                       0
     48 x_6_5       71.9999999999906                       0
     49 x_6_6       76.9999999999906                       0
     51 y_0_1_1                   1                       0
     54 y_0_1_4                   1                       0
     58 y_0_2_1                   1                       0
     61 y_0_2_4                   1                       0
     63 y_0_2_6                   1                       0
     65 y_0_3_1                   1                       0
     68 y_0_3_4                   1                       0
     71 y_0_4_0                   1                       0
     72 y_0_4_1                   1                       0
     73 y_0_4_2                   1                       0
     75 y_0_4_4                   1                       0
     77 y_0_4_6                   1                       0
     78 y_0_5_0                   1                       0
     79 y_0_5_1                   1                       0
     80 y_0_5_2                   1                       0
     81 y_0_5_3                   1                       0
     83 y_0_5_5                   1                       0
     85 y_0_6_0                   1                       0
     86 y_0_6_1                   1                       0
     87 y_0_6_2                   1                     491
     89 y_0_6_4                   1                       0
     93 y_1_2_1                   1                       0
     95 y_1_2_3                   1                       0
     96 y_1_2_4                   1                       0
     97 y_1_2_5                   1                       0
     98 y_1_2_6                   1                       0
    103 y_1_3_4                   1                       0
    104 y_1_3_5                   1                       0
    105 y_1_3_6                   1                       0
    106 y_1_4_0                   1                       0
    108 y_1_4_2                   1                       0
    110 y_1_4_4                   1                       0
    111 y_1_4_5                   1                       0
    112 y_1_4_6                   1                       0
    113 y_1_5_0                   1                       0
    115 y_1_5_2                   1                       0
    116 y_1_5_3                   1                       0
    118 y_1_5_5                   1                       0
    120 y_1_6_0                   1                       0
    121 y_1_6_1                   1                       0
    122 y_1_6_2                   1                       0
    123 y_1_6_3                   1                       0
    124 y_1_6_4                   1                       0
    125 y_1_6_5                   1                       0
    127 y_2_3_0                   1                       0
    132 y_2_3_5                   1                       0
    134 y_2_4_0                   1                       0
    136 y_2_4_2                   1                       0
    139 y_2_4_5                   1                       0
    140 y_2_4_6                   1                       0
    141 y_2_5_0                   1                       0
    143 y_2_5_2                   1                       0
    144 y_2_5_3                   1                       0
    146 y_2_5_5                   1                       0
    148 y_2_6_0                   1                       0
    150 y_2_6_2                   1                       0
    151 y_2_6_3                   1                       0
    152 y_2_6_4                   1                       0
    153 y_2_6_5                   1                       0
    155 y_3_4_0                   1                       0
    156 y_3_4_1                   1                       0
    157 y_3_4_2                   1                       0
    161 y_3_4_6                   1                       0
    162 y_3_5_0                   1                       0
    164 y_3_5_2                   1                       0
    165 y_3_5_3                   1                       0
    167 y_3_5_5                   1                       0
    169 y_3_6_0                   1                       0
    170 y_3_6_1                   1                       0
    171 y_3_6_2                   1                       0
    172 y_3_6_3                   1                       0
    173 y_3_6_4                   1                       0
    178 y_4_5_2                   1                       0
    179 y_4_5_3                   1                       0
    181 y_4_5_5                   1                       0
    183 y_4_6_0                   1                       0
    184 y_4_6_1                   1                       0
    186 y_4_6_3                   1                       0
    187 y_4_6_4                   1                       0
    188 y_4_6_5                   1                       0
    190 y_5_6_0                   1                       0
    191 y_5_6_1                   1                       0
    194 y_5_6_4                   1                       0
    196 y_5_6_6                   1                       0
